NAME : B-n63-k10
COMMENT : (Augerat et al, No of trucks: 10, Optimal value: 1496)
TYPE : CVRP
DIMENSION : 63
EDGE_WEIGHT_TYPE : EUC_2D 
CAPACITY : 100
NODE_COORD_SECTION 
 1 73 89
 2 97 22
 3 19 31
 4 23 95
 5 18 89
 6 60 94
 7 9 26
 8 71 7
 9 10 80
 10 27 64
 11 46 32
 12 26 0
 13 8 8
 14 63 101
 15 16 10
 16 30 69
 17 26 103
 18 20 0
 19 99 32
 20 16 33
 21 79 13
 22 18 30
 23 27 41
 24 34 4
 25 19 0
 26 12 33
 27 11 28
 28 101 0
 29 69 98
 30 69 102
 31 15 81
 32 26 90
 33 65 100
 34 14 29
 35 21 40
 36 10 29
 37 81 10
 38 53 37
 39 31 9
 40 21 36
 41 24 98
 42 15 14
 43 28 36
 44 19 0
 45 30 102
 46 81 15
 47 12 86
 48 30 65
 49 66 99
 50 17 89
 51 102 29
 52 16 31
 53 17 33
 54 32 8
 55 11 11
 56 61 102
 57 16 88
 58 29 9
 59 15 9
 60 14 85
 61 63 95
 62 29 32
 63 19 32
DEMAND_SECTION 
1 0 
2 18 
3 11 
4 18 
5 17 
6 21 
7 6 
8 12 
9 6 
10 21 
11 14 
12 2 
13 5 
14 12 
15 23 
16 23 
17 19 
18 18 
19 8 
20 21 
21 7 
22 19 
23 18 
24 7 
25 6 
26 12 
27 21 
28 6 
29 21 
30 20 
31 18 
32 6 
33 20 
34 20 
35 23 
36 4 
37 21 
38 4 
39 6 
40 9 
41 21 
42 5 
43 20 
44 11 
45 16 
46 48 
47 2 
48 15 
49 15 
50 22 
51 25 
52 23 
53 5 
54 24 
55 11 
56 24 
57 20 
58 21 
59 10 
60 24 
61 3 
62 9 
63 5 
DEPOT_SECTION 
 1  
 -1  
EOF 
